%
% Generated Sudoku 25x25
% Density approximation: 0.60
%
x = array2d(1..n, 1..n, [
  17,   7,  11,  21,  10,   _,   2,   _,   6,  18,   _,   _,  25,  15,  23,   _,   _,  24,   3,   4,  14,  16,   _,   8,  19,
   _,   5,   _,  24,   8,   _,   _,   _,  10,  19,   4,   7,   _,   _,  16,   _,  21,  15,   9,   _,   _,  25,   _,  23,   2,
   _,   _,   _,  18,   _,   _,  15,   _,   _,  14,   _,  24,  11,   _,  19,   _,   _,   _,   _,  25,  20,   _,  13,   3,   7,
  25,   _,   _,  20,   4,  23,   _,   _,   _,   _,  10,   2,   _,  17,   _,  18,  12,  14,  22,  19,   1,   _,  24,   _,  11,
   6,   _,   1,   _,  13,  11,  22,   _,   _,   _,   5,  18,   3,  14,   _,  16,   2,   7,   8,  17,  10,   _,   _,   4,  15,
   _,   _,   6,   8,   _,  22,   _,  18,  19,   _,   1,  14,  24,   _,   _,   _,  23,  16,   _,   _,   5,  10,   _,   _,   4,
   _,  21,   7,   _,  14,  15,  17,  16,   8,  25,   _,   _,   4,   2,   _,   6,   3,  12,   _,   1,   _,   _,  11,   _,  23,
   2,   _,   4,   _,   _,   _,   9,   1,   _,   _,  18,   _,   _,   _,   _,  24,   _,   _,   _,   8,  12,   7,  14,   _,   6,
   1,  17,  10,  16,  23,   _,  14,   6,  24,   3,   _,   _,  12,   _,   8,  25,   5,   _,  11,   _,  22,   _,   _,   9,  21,
  24,  18,  12,   _,  11,   _,   4,   _,   2,   _,  25,  23,  20,   6,   5,  14,  17,  13,  19,   _,   _,   _,   3,  16,   _,
  23,   1,   _,   _,   3,  10,   7,   _,  12,   _,   2,   _,  17,   _,   _,  22,   _,  25,  14,  13,  24,   8,  18,   _,   9,
   _,   _,   _,   _,  15,   2,   _,  22,  21,   1,  20,   6,   _,   3,   _,   8,  19,   _,   _,   _,   4,  14,  16,  13,   _,
   4,  12,  18,  17,   6,   _,   _,   _,  20,   _,  24,  22,   8,   _,  13,   1,  16,   _,  21,   7,   _,   3,   _,  15,   _,
   8,  22,   _,   _,   _,   _,   _,   _,  16,  13,  14,   _,   1,   _,  10,  12,  18,   2,   _,   _,  17,  20,  19,  11,  25,
  14,   2,   5,   _,   _,  18,  19,   _,   _,   8,  11,   _,  21,  25,   _,   3,   4,  20,  24,   _,   7,  23,   _,   6,  22,
   _,  23,   2,   _,   _,  12,   _,   _,   _,  15,  21,  17,  22,   5,  25,   _,   6,  10,   _,  24,   _,   _,   7,   _,   _,
   7,   6,  25,   _,  17,   4,   _,  10,  11,   _,  23,   _,  14,   _,   1,   _,   _,   8,   5,   _,  21,   _,  15,   _,  18,
   _,   _,   _,   _,   _,   9,   6,   8,   3,  22,  12,  16,   _,   _,   _,  17,   7,  18,   _,  14,  25,   _,   _,  20,  10,
   _,   _,   _,   9,  24,  19,   5,  14,  18,  21,  13,   8,   7,   _,   2,  11,  25,   _,  20,   _,   6,   4,  17,   _,   3,
   _,  11,   8,   _,   _,  25,  23,   _,   7,  17,   _,   _,   9,   _,   _,   _,   _,  22,   _,   _,   _,   2,   5,   1,  16,
   _,  20,  23,   2,   _,   _,   _,   _,   5,   _,   6,   _,  10,  12,   3,   9,  14,   _,   _,  21,   _,  22,   4,   _,   _,
   _,   _,  17,   3,  12,   _,  10,   2,  14,  23,   7,  25,  19,   _,  24,   _,   1,  11,  13,   _,  16,  21,   8,  18,  20,
   _,  24,  15,  11,  22,   _,  21,  19,   _,  20,  17,   _,   2,   4,   _,  10,   8,   _,   _,  16,   _,  12,   _,   7,  14,
  18,  14,   _,   _,   _,  24,  12,  15,   _,   _,   _,   _,   5,   8,  22,   _,  20,  23,   7,   6,   _,   _,   9,  19,   _,
   _,   _,  13,   6,   _,  16,   _,   _,  22,   9,  15,  21,  23,   _,  14,   4,  24,   3,   _,   _,   _,   _,   _,  10,  17
]);

n = 25;
